    # Initialization file
    #---------------------

    dimension       3
    boundary        p p m
    units           real
    atom_style      atomic
    pair_style      lj/cut 10.0
    pair_modify     shift yes

    include         blocks/header.LAMMPS

