    # Initialization file
    #---------------------
    dimension       3
    boundary        p p m
    units           real
    atom_style      molecular
    pair_style      lj/cut 10.0
    pair_modify     shift yes mix geometric
    bond_style      harmonic
    angle_style     harmonic
    dihedral_style  opls
    special_bonds   charmm

    include         blocks/header.LAMMPS
