au {

  ### LAMMPS commands for initialization
  ### (These can be overridden later.)


  write_once("In Init") {
    atom_style molecular
  }

  write_once("Data Masses") {
    @atom:type1 196.67
  }

  write("Data Atoms") {
    $atom:type1_1 $mol:m0 @atom:type1 0.0 23.07996533792891 0.0
    $atom:type1_2 $mol:m0 @atom:type1 0.0 25.96496100517002 0.0
    $atom:type1_3 $mol:m0 @atom:type1 0.0 17.309974003446683 0.0
    $atom:type1_4 $mol:m0 @atom:type1 0.0 20.194969670687797 0.0
    $atom:type1_5 $mol:m0 @atom:type1 0.0 11.539982668964456 0.0
    $atom:type1_6 $mol:m0 @atom:type1 0.0 14.424978336205568 0.0
    $atom:type1_7 $mol:m0 @atom:type1 0.0 5.769991334482228 0.0
    $atom:type1_8 $mol:m0 @atom:type1 0.0 8.654987001723342 0.0
    $atom:type1_9 $mol:m0 @atom:type1 0.0 0.0 0.0
    $atom:type1_10 $mol:m0 @atom:type1 78.28569217935039 0.0 2.3555890982936702
    $atom:type1_11 $mol:m0 @atom:type1 0.0 2.884995667241114 0.0
    $atom:type1_12 $mol:m0 @atom:type1 80.78417171698923 27.407458838790582 2.355589098293682
    $atom:type1_13 $mol:m0 @atom:type1 74.95438612916527 25.964961005170025 8.881784197001252e-16
    $atom:type1_14 $mol:m0 @atom:type1 77.45286566680412 27.407458838790582 4.440892098500626e-15
    $atom:type1_15 $mol:m0 @atom:type1 72.45590659152643 27.407458838790582 -8.881784197001252e-16
    $atom:type1_16 $mol:m0 @atom:type1 72.45590659152643 24.522463171549468 -2.6645352591003757e-15
    $atom:type1_17 $mol:m0 @atom:type1 86.61395730481318 23.07996533792891 4.711178196587346
    $atom:type1_18 $mol:m0 @atom:type1 89.11243684245203 27.407458838790575 4.711178196587346
    $atom:type1_19 $mol:m0 @atom:type1 86.61395730481318 25.964961005170025 4.711178196587346
    $atom:type1_20 $mol:m0 @atom:type1 81.61699822953551 0.0 4.711178196587348
    $atom:type1_21 $mol:m0 @atom:type1 84.11547776717435 1.442497833620557 4.711178196587351
    $atom:type1_22 $mol:m0 @atom:type1 89.11243684245203 24.522463171549468 4.711178196587349
    $atom:type1_23 $mol:m0 @atom:type1 88.27961032990574 25.964961005170018 2.355589098293672
    $atom:type1_24 $mol:m0 @atom:type1 83.28265125462806 23.07996533792891 2.3555890982936756
    $atom:type1_25 $mol:m0 @atom:type1 85.78113079226691 27.407458838790575 2.3555890982936756
    $atom:type1_26 $mol:m0 @atom:type1 83.28265125462806 25.964961005170025 2.3555890982936756
    $atom:type1_27 $mol:m0 @atom:type1 85.78113079226691 24.522463171549468 2.355589098293679
    $atom:type1_28 $mol:m0 @atom:type1 84.94830427972063 0.0 7.066767294881018
    $atom:type1_29 $mol:m0 @atom:type1 87.44678381735947 1.442497833620557 7.066767294881021
    $atom:type1_30 $mol:m0 @atom:type1 88.27961032990575 0.0 9.422356393174688
    $atom:type1_31 $mol:m0 @atom:type1 64.96046797860988 0.0 0.0
    $atom:type1_32 $mol:m0 @atom:type1 67.45894751624873 1.4424978336205605 -3.552713678800501e-15
    $atom:type1_33 $mol:m0 @atom:type1 84.94830427972062 25.964961005170018 1.7763568394002505e-15
    $atom:type1_34 $mol:m0 @atom:type1 69.95742705388757 2.8849956672411174 3.552713678800501e-15
    $atom:type1_35 $mol:m0 @atom:type1 87.44678381735946 27.407458838790575 5.329070518200751e-15
    $atom:type1_36 $mol:m0 @atom:type1 69.95742705388757 0.0 0.0
    $atom:type1_37 $mol:m0 @atom:type1 68.29177402879502 0.0 2.3555890982936774
    $atom:type1_38 $mol:m0 @atom:type1 70.79025356643386 1.4424978336205605 2.3555890982936702
    $atom:type1_39 $mol:m0 @atom:type1 80.78417171698923 24.522463171549468 2.355589098293679
    $atom:type1_40 $mol:m0 @atom:type1 80.78417171698922 21.637467504308354 2.355589098293679
    $atom:type1_41 $mol:m0 @atom:type1 79.95134520444294 23.07996533792891 -1.7763568394002505e-15
    $atom:type1_42 $mol:m0 @atom:type1 82.44982474208179 27.407458838790575 5.329070518200751e-15
    $atom:type1_43 $mol:m0 @atom:type1 75.78721264171155 1.442497833620557 2.355589098293674
    $atom:type1_44 $mol:m0 @atom:type1 73.2887331040727 2.8849956672411174 2.355589098293674
    $atom:type1_45 $mol:m0 @atom:type1 75.78721264171155 4.327493500861674 2.3555890982936774
    $atom:type1_46 $mol:m0 @atom:type1 73.2887331040727 0.0 2.3555890982936702
    $atom:type1_47 $mol:m0 @atom:type1 71.62308007898014 0.0 4.711178196587348
    $atom:type1_48 $mol:m0 @atom:type1 74.12155961661898 1.4424978336205605 4.711178196587348
    $atom:type1_49 $mol:m0 @atom:type1 79.95134520444294 25.964961005170025 -1.7763568394002505e-15
    $atom:type1_50 $mol:m0 @atom:type1 82.44982474208179 24.522463171549468 8.881784197001252e-15
    $atom:type1_51 $mol:m0 @atom:type1 74.95438612916526 20.194969670687797 1.7763568394002505e-15
    $atom:type1_52 $mol:m0 @atom:type1 77.4528656668041 24.522463171549468 1.7763568394002505e-15
    $atom:type1_53 $mol:m0 @atom:type1 74.95438612916526 23.07996533792891 -1.7763568394002505e-15
    $atom:type1_54 $mol:m0 @atom:type1 78.28569217935039 5.769991334482228 2.3555890982936702
    $atom:type1_55 $mol:m0 @atom:type1 77.4528656668041 21.637467504308354 1.7763568394002505e-15
    $atom:type1_56 $mol:m0 @atom:type1 78.28569217935038 2.884995667241114 2.3555890982936702
    $atom:type1_57 $mol:m0 @atom:type1 79.11851869189667 1.442497833620557 4.711178196587351
    $atom:type1_58 $mol:m0 @atom:type1 76.62003915425782 2.8849956672411174 4.711178196587344
    $atom:type1_59 $mol:m0 @atom:type1 79.11851869189667 4.327493500861674 4.711178196587355
    $atom:type1_60 $mol:m0 @atom:type1 76.62003915425782 0.0 4.7111781965873405
    $atom:type1_61 $mol:m0 @atom:type1 74.95438612916526 0.0 7.066767294881018
    $atom:type1_62 $mol:m0 @atom:type1 77.45286566680412 1.4424978336205605 7.066767294881025
    $atom:type1_63 $mol:m0 @atom:type1 72.45590659152641 21.637467504308354 -1.7763568394002505e-15
    $atom:type1_64 $mol:m0 @atom:type1 72.45590659152641 18.75247183706724 -1.7763568394002505e-15
    $atom:type1_65 $mol:m0 @atom:type1 86.61395730481318 17.309974003446683 4.711178196587346
    $atom:type1_66 $mol:m0 @atom:type1 89.11243684245204 21.637467504308354 4.711178196587348
    $atom:type1_67 $mol:m0 @atom:type1 86.6139573048132 20.194969670687797 4.711178196587344
    $atom:type1_68 $mol:m0 @atom:type1 89.11243684245203 18.75247183706724 4.711178196587346
    $atom:type1_69 $mol:m0 @atom:type1 88.27961032990575 20.194969670687797 2.355589098293672
    $atom:type1_70 $mol:m0 @atom:type1 88.27961032990575 23.07996533792891 2.355589098293674
    $atom:type1_71 $mol:m0 @atom:type1 84.11547776717435 4.327493500861667 4.711178196587348
    $atom:type1_72 $mol:m0 @atom:type1 81.61699822953551 5.769991334482228 4.711178196587348
    $atom:type1_73 $mol:m0 @atom:type1 84.11547776717435 7.212489168102785 4.711178196587351
    $atom:type1_74 $mol:m0 @atom:type1 81.6169982295355 2.884995667241114 4.711178196587348
    $atom:type1_75 $mol:m0 @atom:type1 82.44982474208179 1.442497833620557 7.066767294881021
    $atom:type1_76 $mol:m0 @atom:type1 79.95134520444294 2.8849956672411174 7.066767294881021
    $atom:type1_77 $mol:m0 @atom:type1 82.44982474208179 4.327493500861674 7.066767294881025
    $atom:type1_78 $mol:m0 @atom:type1 79.95134520444294 0.0 7.066767294881018
    $atom:type1_79 $mol:m0 @atom:type1 78.28569217935038 0.0 9.422356393174695
    $atom:type1_80 $mol:m0 @atom:type1 80.78417171698923 1.4424978336205605 9.422356393174695
    $atom:type1_81 $mol:m0 @atom:type1 83.28265125462806 17.309974003446683 2.3555890982936756
    $atom:type1_82 $mol:m0 @atom:type1 85.78113079226692 21.637467504308354 2.3555890982936774
    $atom:type1_83 $mol:m0 @atom:type1 83.28265125462806 20.194969670687797 2.355589098293674
    $atom:type1_84 $mol:m0 @atom:type1 85.78113079226692 18.75247183706724 2.3555890982936756
    $atom:type1_85 $mol:m0 @atom:type1 84.94830427972063 20.194969670687797 1.7763568394002505e-15
    $atom:type1_86 $mol:m0 @atom:type1 87.44678381735947 24.52246317154946 3.552713678800501e-15
    $atom:type1_87 $mol:m0 @atom:type1 87.44678381735947 4.327493500861667 7.066767294881018
    $atom:type1_88 $mol:m0 @atom:type1 84.94830427972063 5.769991334482228 7.066767294881018
    $atom:type1_89 $mol:m0 @atom:type1 87.44678381735947 7.212489168102785 7.066767294881021
    $atom:type1_90 $mol:m0 @atom:type1 84.94830427972062 2.884995667241114 7.066767294881018
    $atom:type1_91 $mol:m0 @atom:type1 85.78113079226691 1.442497833620557 9.422356393174692
    $atom:type1_92 $mol:m0 @atom:type1 83.28265125462806 2.8849956672411174 9.422356393174692
    $atom:type1_93 $mol:m0 @atom:type1 85.78113079226691 4.327493500861674 9.422356393174695
    $atom:type1_94 $mol:m0 @atom:type1 83.28265125462806 0.0 9.422356393174688
    $atom:type1_95 $mol:m0 @atom:type1 81.6169982295355 0.0 11.777945491468365
    $atom:type1_96 $mol:m0 @atom:type1 84.11547776717435 1.4424978336205605 11.777945491468365
    $atom:type1_97 $mol:m0 @atom:type1 88.27961032990575 5.769991334482228 9.422356393174688
    $atom:type1_98 $mol:m0 @atom:type1 88.27961032990574 2.884995667241114 9.422356393174688
    $atom:type1_99 $mol:m0 @atom:type1 89.11243684245204 1.442497833620557 11.777945491468362
    $atom:type1_100 $mol:m0 @atom:type1 86.61395730481318 2.8849956672411174 11.777945491468362
    $atom:type1_101 $mol:m0 @atom:type1 89.11243684245204 4.327493500861674 11.777945491468365
    $atom:type1_102 $mol:m0 @atom:type1 86.61395730481318 0.0 11.777945491468358
    $atom:type1_103 $mol:m0 @atom:type1 54.96654982805453 0.0 0.0
    $atom:type1_104 $mol:m0 @atom:type1 57.46502936569337 1.442497833620557 1.7763568394002505e-15
    $atom:type1_105 $mol:m0 @atom:type1 62.46198844097105 1.4424978336205534 -1.7763568394002505e-15
    $atom:type1_106 $mol:m0 @atom:type1 59.96350890333221 2.8849956672411103 0.0
    $atom:type1_107 $mol:m0 @atom:type1 62.46198844097105 4.327493500861671 -3.552713678800501e-15
    $atom:type1_108 $mol:m0 @atom:type1 59.963508903332205 0.0 0.0
    $atom:type1_109 $mol:m0 @atom:type1 58.29785587823965 0.0 2.355589098293674
    $atom:type1_110 $mol:m0 @atom:type1 60.79633541587849 1.442497833620557 2.355589098293672
    $atom:type1_111 $mol:m0 @atom:type1 67.45894751624873 4.327493500861671 -1.7763568394002505e-15
    $atom:type1_112 $mol:m0 @atom:type1 64.96046797860988 5.769991334482228 0.0
    $atom:type1_113 $mol:m0 @atom:type1 67.45894751624873 7.212489168102785 0.0
    $atom:type1_114 $mol:m0 @atom:type1 64.9604679786099 2.884995667241114 -1.7763568394002505e-15
    $atom:type1_115 $mol:m0 @atom:type1 65.79329449115617 1.4424978336205534 2.355589098293672
    $atom:type1_116 $mol:m0 @atom:type1 63.29481495351733 2.8849956672411103 2.355589098293674
    $atom:type1_117 $mol:m0 @atom:type1 65.79329449115616 4.327493500861671 2.3555890982936702
    $atom:type1_118 $mol:m0 @atom:type1 63.294814953517324 0.0 2.355589098293672
    $atom:type1_119 $mol:m0 @atom:type1 61.62916192842477 0.0 4.711178196587348
    $atom:type1_120 $mol:m0 @atom:type1 64.12764146606361 1.442497833620557 4.711178196587348
    $atom:type1_121 $mol:m0 @atom:type1 84.94830427972063 23.07996533792891 3.552713678800501e-15
    $atom:type1_122 $mol:m0 @atom:type1 69.95742705388757 8.654987001723338 3.552713678800501e-15
    $atom:type1_123 $mol:m0 @atom:type1 87.44678381735947 21.637467504308354 5.329070518200751e-15
    $atom:type1_124 $mol:m0 @atom:type1 69.95742705388759 5.769991334482228 5.329070518200751e-15
    $atom:type1_125 $mol:m0 @atom:type1 70.79025356643386 4.327493500861671 2.355589098293672
    $atom:type1_126 $mol:m0 @atom:type1 68.29177402879502 5.769991334482228 2.3555890982936774
    $atom:type1_127 $mol:m0 @atom:type1 70.79025356643386 7.212489168102785 2.355589098293674
    $atom:type1_128 $mol:m0 @atom:type1 68.29177402879502 2.884995667241114 2.3555890982936756
    $atom:type1_129 $mol:m0 @atom:type1 69.1246005413413 1.4424978336205534 4.711178196587346
    $atom:type1_130 $mol:m0 @atom:type1 66.62612100370245 2.8849956672411103 4.711178196587351
    $atom:type1_131 $mol:m0 @atom:type1 69.1246005413413 4.327493500861671 4.711178196587344
    $atom:type1_132 $mol:m0 @atom:type1 66.62612100370245 0.0 4.711178196587349
    $atom:type1_133 $mol:m0 @atom:type1 64.9604679786099 0.0 7.066767294881025
    $atom:type1_134 $mol:m0 @atom:type1 67.45894751624873 1.442497833620557 7.066767294881018
    $atom:type1_135 $mol:m0 @atom:type1 80.78417171698923 18.75247183706724 2.355589098293681
    $atom:type1_136 $mol:m0 @atom:type1 80.78417171698923 15.867476169826128 2.355589098293679
    $atom:type1_137 $mol:m0 @atom:type1 79.95134520444294 17.309974003446683 -1.7763568394002505e-15
    $atom:type1_138 $mol:m0 @atom:type1 82.4498247420818 21.637467504308354 7.105427357601002e-15
    $atom:type1_139 $mol:m0 @atom:type1 75.78721264171155 7.212489168102781 2.3555890982936756
    $atom:type1_140 $mol:m0 @atom:type1 73.2887331040727 8.654987001723338 2.355589098293674
    $atom:type1_141 $mol:m0 @atom:type1 75.78721264171153 10.097484835343895 2.3555890982936774
    $atom:type1_142 $mol:m0 @atom:type1 73.2887331040727 5.769991334482228 2.3555890982936756
    $atom:type1_143 $mol:m0 @atom:type1 74.121559616619 4.327493500861671 4.711178196587349
    $atom:type1_144 $mol:m0 @atom:type1 71.62308007898014 5.769991334482228 4.711178196587348
    $atom:type1_145 $mol:m0 @atom:type1 74.12155961661898 7.212489168102785 4.711178196587351
    $atom:type1_146 $mol:m0 @atom:type1 71.62308007898015 2.884995667241114 4.711178196587346
    $atom:type1_147 $mol:m0 @atom:type1 72.45590659152643 1.4424978336205534 7.066767294881023
    $atom:type1_148 $mol:m0 @atom:type1 69.95742705388759 2.8849956672411103 7.066767294881021
    $atom:type1_149 $mol:m0 @atom:type1 72.45590659152641 4.327493500861671 7.066767294881021
    $atom:type1_150 $mol:m0 @atom:type1 69.95742705388759 0.0 7.06676729488102
    $atom:type1_151 $mol:m0 @atom:type1 68.29177402879502 0.0 9.422356393174695
    $atom:type1_152 $mol:m0 @atom:type1 70.79025356643386 1.442497833620557 9.422356393174695
    $atom:type1_153 $mol:m0 @atom:type1 79.95134520444296 20.194969670687797 -3.552713678800501e-15
    $atom:type1_154 $mol:m0 @atom:type1 82.44982474208179 18.75247183706724 5.329070518200751e-15
    $atom:type1_155 $mol:m0 @atom:type1 74.95438612916526 14.424978336205568 1.7763568394002505e-15
    $atom:type1_156 $mol:m0 @atom:type1 77.45286566680412 18.75247183706724 3.552713678800501e-15
    $atom:type1_157 $mol:m0 @atom:type1 74.95438612916527 17.309974003446683 0.0
    $atom:type1_158 $mol:m0 @atom:type1 78.28569217935038 11.539982668964452 2.355589098293674
    $atom:type1_159 $mol:m0 @atom:type1 77.4528656668041 15.867476169826128 1.7763568394002505e-15
    $atom:type1_160 $mol:m0 @atom:type1 78.28569217935039 8.654987001723338 2.355589098293672
    $atom:type1_161 $mol:m0 @atom:type1 79.11851869189668 7.212489168102781 4.711178196587353
    $atom:type1_162 $mol:m0 @atom:type1 76.62003915425782 8.654987001723338 4.711178196587344
    $atom:type1_163 $mol:m0 @atom:type1 79.11851869189667 10.097484835343895 4.711178196587355
    $atom:type1_164 $mol:m0 @atom:type1 76.62003915425782 5.769991334482228 4.711178196587346
    $atom:type1_165 $mol:m0 @atom:type1 77.45286566680412 4.327493500861671 7.066767294881027
    $atom:type1_166 $mol:m0 @atom:type1 74.95438612916526 5.769991334482228 7.066767294881018
    $atom:type1_167 $mol:m0 @atom:type1 77.4528656668041 7.212489168102785 7.0667672948810285
    $atom:type1_168 $mol:m0 @atom:type1 74.95438612916527 2.884995667241114 7.066767294881016
    $atom:type1_169 $mol:m0 @atom:type1 75.78721264171155 1.4424978336205534 9.4223563931747
    $atom:type1_170 $mol:m0 @atom:type1 73.28873310407269 2.8849956672411103 9.422356393174692
    $atom:type1_171 $mol:m0 @atom:type1 75.78721264171155 4.327493500861671 9.422356393174699
    $atom:type1_172 $mol:m0 @atom:type1 73.2887331040727 0.0 9.42235639317469
    $atom:type1_173 $mol:m0 @atom:type1 71.62308007898014 0.0 11.777945491468365
    $atom:type1_174 $mol:m0 @atom:type1 74.12155961661898 1.442497833620557 11.777945491468373
    $atom:type1_175 $mol:m0 @atom:type1 72.45590659152643 15.867476169826125 0.0
    $atom:type1_176 $mol:m0 @atom:type1 72.45590659152641 12.98248050258501 1.7763568394002505e-15
    $atom:type1_177 $mol:m0 @atom:type1 86.6139573048132 11.539982668964452 4.711178196587346
    $atom:type1_178 $mol:m0 @atom:type1 89.11243684245203 15.867476169826126 4.711178196587348
    $atom:type1_179 $mol:m0 @atom:type1 86.61395730481318 14.42497833620557 4.711178196587344
    $atom:type1_180 $mol:m0 @atom:type1 89.11243684245204 12.982480502585013 4.711178196587346
    $atom:type1_181 $mol:m0 @atom:type1 88.27961032990575 14.42497833620557 2.355589098293672
    $atom:type1_182 $mol:m0 @atom:type1 88.27961032990575 17.309974003446683 2.3555890982936702
    $atom:type1_183 $mol:m0 @atom:type1 84.11547776717435 10.097484835343895 4.711178196587353
    $atom:type1_184 $mol:m0 @atom:type1 81.6169982295355 11.539982668964452 4.711178196587351
    $atom:type1_185 $mol:m0 @atom:type1 84.11547776717435 12.982480502585009 4.711178196587351
    $atom:type1_186 $mol:m0 @atom:type1 81.61699822953551 8.654987001723338 4.711178196587349
    $atom:type1_187 $mol:m0 @atom:type1 82.4498247420818 7.212489168102781 7.066767294881023
    $atom:type1_188 $mol:m0 @atom:type1 79.95134520444294 8.654987001723338 7.066767294881021
    $atom:type1_189 $mol:m0 @atom:type1 82.44982474208179 10.097484835343895 7.066767294881025
    $atom:type1_190 $mol:m0 @atom:type1 79.95134520444294 5.769991334482228 7.066767294881023
    $atom:type1_191 $mol:m0 @atom:type1 80.78417171698923 4.327493500861671 9.422356393174697
    $atom:type1_192 $mol:m0 @atom:type1 78.28569217935038 5.769991334482228 9.422356393174695
    $atom:type1_193 $mol:m0 @atom:type1 80.78417171698922 7.212489168102785 9.422356393174699
    $atom:type1_194 $mol:m0 @atom:type1 78.28569217935039 2.884995667241114 9.422356393174693
    $atom:type1_195 $mol:m0 @atom:type1 79.11851869189667 1.4424978336205534 11.77794549146837
    $atom:type1_196 $mol:m0 @atom:type1 76.62003915425781 2.8849956672411103 11.777945491468369
    $atom:type1_197 $mol:m0 @atom:type1 79.11851869189667 4.327493500861671 11.777945491468369
    $atom:type1_198 $mol:m0 @atom:type1 76.62003915425782 0.0 11.777945491468367
    $atom:type1_199 $mol:m0 @atom:type1 83.28265125462806 11.539982668964452 2.3555890982936756
    $atom:type1_200 $mol:m0 @atom:type1 85.78113079226691 15.867476169826126 2.3555890982936774
    $atom:type1_201 $mol:m0 @atom:type1 83.28265125462806 14.42497833620557 2.355589098293674
    $atom:type1_202 $mol:m0 @atom:type1 85.78113079226692 12.982480502585013 2.3555890982936756
    $atom:type1_203 $mol:m0 @atom:type1 84.94830427972063 14.42497833620557 1.7763568394002505e-15
    $atom:type1_204 $mol:m0 @atom:type1 87.44678381735947 18.75247183706724 3.552713678800501e-15
    $atom:type1_205 $mol:m0 @atom:type1 87.44678381735947 10.097484835343895 7.066767294881023
    $atom:type1_206 $mol:m0 @atom:type1 84.94830427972062 11.539982668964452 7.066767294881021
    $atom:type1_207 $mol:m0 @atom:type1 87.44678381735946 12.982480502585009 7.066767294881021
    $atom:type1_208 $mol:m0 @atom:type1 84.94830427972063 8.654987001723338 7.06676729488102
    $atom:type1_209 $mol:m0 @atom:type1 85.78113079226692 7.212489168102781 9.422356393174693
    $atom:type1_210 $mol:m0 @atom:type1 83.28265125462806 8.654987001723338 9.422356393174692
    $atom:type1_211 $mol:m0 @atom:type1 85.78113079226691 10.097484835343895 9.422356393174695
    $atom:type1_212 $mol:m0 @atom:type1 83.28265125462806 5.769991334482228 9.422356393174693
    $atom:type1_213 $mol:m0 @atom:type1 84.11547776717435 4.327493500861671 11.777945491468367
    $atom:type1_214 $mol:m0 @atom:type1 81.6169982295355 5.769991334482228 11.777945491468365
    $atom:type1_215 $mol:m0 @atom:type1 84.11547776717434 7.212489168102785 11.777945491468369
    $atom:type1_216 $mol:m0 @atom:type1 81.61699822953551 2.884995667241114 11.777945491468364
    $atom:type1_217 $mol:m0 @atom:type1 88.27961032990574 11.539982668964452 9.422356393174692
    $atom:type1_218 $mol:m0 @atom:type1 88.27961032990575 8.654987001723338 9.42235639317469
    $atom:type1_219 $mol:m0 @atom:type1 89.11243684245204 7.212489168102781 11.777945491468364
    $atom:type1_220 $mol:m0 @atom:type1 86.61395730481318 8.654987001723338 11.777945491468362
    $atom:type1_221 $mol:m0 @atom:type1 89.11243684245203 10.097484835343895 11.777945491468365
    $atom:type1_222 $mol:m0 @atom:type1 86.61395730481318 5.769991334482228 11.777945491468364
    $atom:type1_223 $mol:m0 @atom:type1 44.97263167749915 0.0 0.0
    $atom:type1_224 $mol:m0 @atom:type1 47.47111121513799 1.442497833620557 -1.7763568394002505e-15
    $atom:type1_225 $mol:m0 @atom:type1 52.46807029041569 1.4424978336205587 1.7763568394002505e-15
    $atom:type1_226 $mol:m0 @atom:type1 49.96959075277684 2.8849956672411157 0.0
    $atom:type1_227 $mol:m0 @atom:type1 52.46807029041568 4.327493500861673 1.7763568394002505e-15
    $atom:type1_228 $mol:m0 @atom:type1 49.96959075277684 0.0 0.0
    $atom:type1_229 $mol:m0 @atom:type1 48.30393772768427 0.0 2.355589098293674
    $atom:type1_230 $mol:m0 @atom:type1 50.80241726532312 1.442497833620557 2.3555890982936756
    $atom:type1_231 $mol:m0 @atom:type1 57.46502936569337 4.327493500861669 1.7763568394002505e-15
    $atom:type1_232 $mol:m0 @atom:type1 54.966549828054525 5.769991334482226 0.0
    $atom:type1_233 $mol:m0 @atom:type1 57.46502936569336 7.2124891681027865 0.0
    $atom:type1_234 $mol:m0 @atom:type1 54.966549828054525 2.8849956672411157 0.0
    $atom:type1_235 $mol:m0 @atom:type1 55.79937634060081 1.4424978336205587 2.3555890982936756
    $atom:type1_236 $mol:m0 @atom:type1 53.300896802961965 2.8849956672411157 2.355589098293674
    $atom:type1_237 $mol:m0 @atom:type1 55.7993763406008 4.327493500861673 2.3555890982936756
    $atom:type1_238 $mol:m0 @atom:type1 53.300896802961965 0.0 2.355589098293674
    $atom:type1_239 $mol:m0 @atom:type1 51.6352437778694 0.0 4.711178196587348
    $atom:type1_240 $mol:m0 @atom:type1 54.13372331550824 1.442497833620557 4.711178196587349
    $atom:type1_241 $mol:m0 @atom:type1 62.46198844097105 7.2124891681027865 -1.7763568394002505e-15
    $atom:type1_242 $mol:m0 @atom:type1 59.963508903332205 8.654987001723343 0.0
    $atom:type1_243 $mol:m0 @atom:type1 62.46198844097105 10.0974848353439 0.0
    $atom:type1_244 $mol:m0 @atom:type1 59.96350890333221 5.76999133448223 -1.7763568394002505e-15
    $atom:type1_245 $mol:m0 @atom:type1 60.79633541587849 4.327493500861669 2.355589098293672
    $atom:type1_246 $mol:m0 @atom:type1 58.297855878239645 5.769991334482226 2.355589098293674
    $atom:type1_247 $mol:m0 @atom:type1 60.79633541587848 7.2124891681027865 2.3555890982936702
    $atom:type1_248 $mol:m0 @atom:type1 58.297855878239645 2.8849956672411157 2.355589098293674
    $atom:type1_249 $mol:m0 @atom:type1 59.13068239078593 1.4424978336205587 4.711178196587346
    $atom:type1_250 $mol:m0 @atom:type1 56.632202853147085 2.8849956672411157 4.711178196587348
    $atom:type1_251 $mol:m0 @atom:type1 59.13068239078592 4.327493500861673 4.711178196587346
    $atom:type1_252 $mol:m0 @atom:type1 56.632202853147085 0.0 4.711178196587346
    $atom:type1_253 $mol:m0 @atom:type1 54.96654982805452 0.0 7.066767294881021
    $atom:type1_254 $mol:m0 @atom:type1 57.46502936569336 1.442497833620557 7.066767294881021
    $atom:type1_255 $mol:m0 @atom:type1 67.45894751624873 10.097484835343897 -1.7763568394002505e-15
    $atom:type1_256 $mol:m0 @atom:type1 64.96046797860988 11.539982668964454 0.0
    $atom:type1_257 $mol:m0 @atom:type1 67.45894751624873 12.98248050258501 0.0
    $atom:type1_258 $mol:m0 @atom:type1 64.9604679786099 8.654987001723343 1.7763568394002505e-15
    $atom:type1_259 $mol:m0 @atom:type1 65.79329449115616 7.2124891681027865 2.355589098293672
    $atom:type1_260 $mol:m0 @atom:type1 63.294814953517324 8.654987001723343 2.355589098293674
    $atom:type1_261 $mol:m0 @atom:type1 65.79329449115617 10.0974848353439 2.355589098293674
    $atom:type1_262 $mol:m0 @atom:type1 63.29481495351733 5.76999133448223 2.355589098293672
    $atom:type1_263 $mol:m0 @atom:type1 64.12764146606361 4.327493500861669 4.711178196587346
    $atom:type1_264 $mol:m0 @atom:type1 61.629161928424764 5.769991334482226 4.711178196587348
    $atom:type1_265 $mol:m0 @atom:type1 64.12764146606361 7.2124891681027865 4.711178196587344
    $atom:type1_266 $mol:m0 @atom:type1 61.629161928424764 2.8849956672411157 4.711178196587346
    $atom:type1_267 $mol:m0 @atom:type1 62.46198844097105 1.4424978336205587 7.06676729488102
    $atom:type1_268 $mol:m0 @atom:type1 59.963508903332205 2.8849956672411157 7.066767294881021
    $atom:type1_269 $mol:m0 @atom:type1 62.46198844097104 4.327493500861673 7.066767294881021
    $atom:type1_270 $mol:m0 @atom:type1 59.963508903332205 0.0 7.066767294881023
    $atom:type1_271 $mol:m0 @atom:type1 58.29785587823964 0.0 9.422356393174695
    $atom:type1_272 $mol:m0 @atom:type1 60.79633541587848 1.442497833620557 9.422356393174692
    $atom:type1_273 $mol:m0 @atom:type1 84.94830427972062 17.309974003446683 0.0
    $atom:type1_274 $mol:m0 @atom:type1 69.95742705388757 14.424978336205568 7.105427357601002e-15
    $atom:type1_275 $mol:m0 @atom:type1 87.44678381735949 15.867476169826126 1.7763568394002505e-15
    $atom:type1_276 $mol:m0 @atom:type1 69.95742705388759 11.539982668964454 5.329070518200751e-15
    $atom:type1_277 $mol:m0 @atom:type1 70.79025356643385 10.097484835343897 2.355589098293672
    $atom:type1_278 $mol:m0 @atom:type1 68.29177402879502 11.539982668964454 2.3555890982936774
    $atom:type1_279 $mol:m0 @atom:type1 70.79025356643386 12.98248050258501 2.355589098293674
    $atom:type1_280 $mol:m0 @atom:type1 68.29177402879502 8.654987001723343 2.355589098293679
    $atom:type1_281 $mol:m0 @atom:type1 69.1246005413413 7.2124891681027865 4.711178196587346
    $atom:type1_282 $mol:m0 @atom:type1 66.62612100370245 8.654987001723343 4.711178196587351
    $atom:type1_283 $mol:m0 @atom:type1 69.1246005413413 10.0974848353439 4.711178196587348
    $atom:type1_284 $mol:m0 @atom:type1 66.62612100370245 5.76999133448223 4.711178196587349
    $atom:type1_285 $mol:m0 @atom:type1 67.45894751624874 4.327493500861669 7.06676729488102
    $atom:type1_286 $mol:m0 @atom:type1 64.9604679786099 5.769991334482226 7.066767294881025
    $atom:type1_287 $mol:m0 @atom:type1 67.45894751624874 7.2124891681027865 7.066767294881018
    $atom:type1_288 $mol:m0 @atom:type1 64.9604679786099 2.8849956672411157 7.066767294881023
    $atom:type1_289 $mol:m0 @atom:type1 65.79329449115617 1.4424978336205587 9.422356393174693
    $atom:type1_290 $mol:m0 @atom:type1 63.29481495351733 2.8849956672411157 9.422356393174699
    $atom:type1_291 $mol:m0 @atom:type1 65.79329449115617 4.327493500861673 9.422356393174692
    $atom:type1_292 $mol:m0 @atom:type1 63.29481495351733 0.0 9.4223563931747
    $atom:type1_293 $mol:m0 @atom:type1 61.629161928424764 0.0 11.777945491468373
    $atom:type1_294 $mol:m0 @atom:type1 64.12764146606361 1.442497833620557 11.777945491468369
    $atom:type1_295 $mol:m0 @atom:type1 80.78417171698922 12.982480502585009 2.355589098293681
    $atom:type1_296 $mol:m0 @atom:type1 80.78417171698923 10.097484835343895 2.3555890982936827
    $atom:type1_297 $mol:m0 @atom:type1 79.95134520444296 11.539982668964452 -1.7763568394002505e-15
    $atom:type1_298 $mol:m0 @atom:type1 82.44982474208179 15.867476169826126 7.105427357601002e-15
    $atom:type1_299 $mol:m0 @atom:type1 75.78721264171155 12.98248050258501 2.355589098293679
    $atom:type1_300 $mol:m0 @atom:type1 73.2887331040727 14.424978336205568 2.3555890982936774
    $atom:type1_301 $mol:m0 @atom:type1 75.78721264171155 15.867476169826125 2.3555890982936774
    $atom:type1_302 $mol:m0 @atom:type1 73.2887331040727 11.539982668964454 2.3555890982936756
    $atom:type1_303 $mol:m0 @atom:type1 74.12155961661898 10.097484835343897 4.711178196587349
    $atom:type1_304 $mol:m0 @atom:type1 71.62308007898015 11.539982668964454 4.711178196587348
    $atom:type1_305 $mol:m0 @atom:type1 74.12155961661898 12.98248050258501 4.711178196587351
    $atom:type1_306 $mol:m0 @atom:type1 71.62308007898014 8.654987001723343 4.711178196587349
    $atom:type1_307 $mol:m0 @atom:type1 72.45590659152643 7.2124891681027865 7.066767294881023
    $atom:type1_308 $mol:m0 @atom:type1 69.95742705388759 8.654987001723343 7.066767294881021
    $atom:type1_309 $mol:m0 @atom:type1 72.45590659152643 10.0974848353439 7.066767294881025
    $atom:type1_310 $mol:m0 @atom:type1 69.95742705388759 5.76999133448223 7.06676729488102
    $atom:type1_311 $mol:m0 @atom:type1 70.79025356643386 4.327493500861669 9.422356393174697
    $atom:type1_312 $mol:m0 @atom:type1 68.29177402879502 5.769991334482226 9.422356393174695
    $atom:type1_313 $mol:m0 @atom:type1 70.79025356643386 7.2124891681027865 9.422356393174695
    $atom:type1_314 $mol:m0 @atom:type1 68.29177402879502 2.8849956672411157 9.422356393174693
    $atom:type1_315 $mol:m0 @atom:type1 69.1246005413413 1.4424978336205587 11.77794549146837
    $atom:type1_316 $mol:m0 @atom:type1 66.62612100370247 2.8849956672411157 11.777945491468369
    $atom:type1_317 $mol:m0 @atom:type1 69.1246005413413 4.327493500861673 11.777945491468369
    $atom:type1_318 $mol:m0 @atom:type1 66.62612100370245 0.0 11.77794549146837
    $atom:type1_319 $mol:m0 @atom:type1 79.95134520444294 14.42497833620557 -3.552713678800501e-15
    $atom:type1_320 $mol:m0 @atom:type1 82.4498247420818 12.982480502585013 5.329070518200751e-15
    $atom:type1_321 $mol:m0 @atom:type1 74.95438612916527 8.654987001723338 1.7763568394002505e-15
    $atom:type1_322 $mol:m0 @atom:type1 77.4528656668041 12.982480502585009 3.552713678800501e-15
    $atom:type1_323 $mol:m0 @atom:type1 74.95438612916526 11.539982668964452 3.552713678800501e-15
    $atom:type1_324 $mol:m0 @atom:type1 78.28569217935039 17.309974003446683 2.3555890982936702
    $atom:type1_325 $mol:m0 @atom:type1 77.45286566680412 10.097484835343895 5.329070518200751e-15