au {

  ### LAMMPS commands for initialization
  ### (These can be overridden later.)


  write_once("In Init") {
    atom_style molecular
  }

  write_once("In Settings") {
    pair_coeff @atom:type1 @atom:type1 3.36442 2.655
  }


  ### DATA sections


  write_once("Data Masses") {
    @atom:type1 196.67
  }

  write("Data Atoms") {
    $atom:type1_1 $mol:m0 @atom:type1 74.95438612916526 0.0 77.73444024369122
    $atom:type1_2 $mol:m0 @atom:type1 64.96046797860988 0.0 77.73444024369122
    $atom:type1_3 $mol:m0 @atom:type1 67.45894751624874 1.4424978336205552 77.73444024369122
    $atom:type1_4 $mol:m0 @atom:type1 72.45590659152643 1.442497833620557 77.73444024369122
    $atom:type1_5 $mol:m0 @atom:type1 69.95742705388757 2.884995667241112 77.73444024369122
    $atom:type1_6 $mol:m0 @atom:type1 72.45590659152641 4.327493500861669 77.73444024369122
    $atom:type1_7 $mol:m0 @atom:type1 69.95742705388759 0.0 77.73444024369122
    $atom:type1_8 $mol:m0 @atom:type1 68.291774028795 0.0 80.0900293419849
    $atom:type1_9 $mol:m0 @atom:type1 70.79025356643386 1.4424978336205552 80.0900293419849
    $atom:type1_10 $mol:m0 @atom:type1 74.95438612916524 5.769991334482227 77.73444024369122
    $atom:type1_11 $mol:m0 @atom:type1 74.95438612916526 2.884995667241114 77.73444024369122
    $atom:type1_12 $mol:m0 @atom:type1 73.28873310407269 2.884995667241112 80.0900293419849
    $atom:type1_13 $mol:m0 @atom:type1 73.2887331040727 0.0 80.0900293419849
    $atom:type1_14 $mol:m0 @atom:type1 71.62308007898012 0.0 82.44561844027858
    $atom:type1_15 $mol:m0 @atom:type1 74.12155961661898 1.4424978336205552 82.44561844027858
    $atom:type1_16 $mol:m0 @atom:type1 54.96654982805453 0.0 77.73444024369124
    $atom:type1_17 $mol:m0 @atom:type1 57.46502936569336 1.4424978336205587 77.73444024369121
    $atom:type1_18 $mol:m0 @atom:type1 62.46198844097104 1.442497833620557 77.73444024369122
    $atom:type1_19 $mol:m0 @atom:type1 59.963508903332205 2.8849956672411157 77.73444024369124
    $atom:type1_20 $mol:m0 @atom:type1 62.46198844097105 4.327493500861671 77.73444024369121
    $atom:type1_21 $mol:m0 @atom:type1 59.96350890333221 0.0 77.73444024369124
    $atom:type1_22 $mol:m0 @atom:type1 58.29785587823965 0.0 80.09002934198492
    $atom:type1_23 $mol:m0 @atom:type1 60.79633541587848 1.4424978336205587 80.09002934198489
    $atom:type1_24 $mol:m0 @atom:type1 67.45894751624874 4.327493500861669 77.73444024369124
    $atom:type1_25 $mol:m0 @atom:type1 64.9604679786099 5.769991334482228 77.73444024369124
    $atom:type1_26 $mol:m0 @atom:type1 67.45894751624874 7.212489168102785 77.73444024369124
    $atom:type1_27 $mol:m0 @atom:type1 64.9604679786099 2.884995667241112 77.73444024369122
    $atom:type1_28 $mol:m0 @atom:type1 65.79329449115617 1.442497833620557 80.0900293419849
    $atom:type1_29 $mol:m0 @atom:type1 63.294814953517324 2.8849956672411157 80.09002934198489
    $atom:type1_30 $mol:m0 @atom:type1 65.79329449115619 4.327493500861671 80.09002934198489
    $atom:type1_31 $mol:m0 @atom:type1 63.29481495351733 0.0 80.0900293419849
    $atom:type1_32 $mol:m0 @atom:type1 61.62916192842477 0.0 82.44561844027857
    $atom:type1_33 $mol:m0 @atom:type1 64.12764146606362 1.4424978336205587 82.44561844027857
    $atom:type1_34 $mol:m0 @atom:type1 72.45590659152641 7.212489168102784 77.73444024369122
    $atom:type1_35 $mol:m0 @atom:type1 69.95742705388759 8.654987001723342 77.73444024369121
    $atom:type1_36 $mol:m0 @atom:type1 72.45590659152643 10.097484835343899 77.73444024369121
    $atom:type1_37 $mol:m0 @atom:type1 69.95742705388757 5.769991334482226 77.73444024369122
    $atom:type1_38 $mol:m0 @atom:type1 70.79025356643386 4.327493500861669 80.0900293419849
    $atom:type1_39 $mol:m0 @atom:type1 68.29177402879502 5.769991334482228 80.09002934198489
    $atom:type1_40 $mol:m0 @atom:type1 70.79025356643386 7.212489168102785 80.09002934198489
    $atom:type1_41 $mol:m0 @atom:type1 68.29177402879502 2.884995667241112 80.0900293419849
    $atom:type1_42 $mol:m0 @atom:type1 69.1246005413413 1.442497833620557 82.44561844027858
    $atom:type1_43 $mol:m0 @atom:type1 66.62612100370245 2.8849956672411157 82.44561844027857
    $atom:type1_44 $mol:m0 @atom:type1 69.12460054134131 4.327493500861671 82.44561844027857
    $atom:type1_45 $mol:m0 @atom:type1 66.62612100370245 0.0 82.44561844027858
    $atom:type1_46 $mol:m0 @atom:type1 74.95438612916526 11.539982668964456 77.73444024369124
    $atom:type1_47 $mol:m0 @atom:type1 74.95438612916526 8.65498700172334 77.73444024369122
    $atom:type1_48 $mol:m0 @atom:type1 73.28873310407269 8.654987001723342 80.09002934198489
    $atom:type1_49 $mol:m0 @atom:type1 73.28873310407269 5.769991334482226 80.0900293419849
    $atom:type1_50 $mol:m0 @atom:type1 74.12155961661898 4.327493500861669 82.44561844027858
    $atom:type1_51 $mol:m0 @atom:type1 71.62308007898014 5.769991334482228 82.44561844027857
    $atom:type1_52 $mol:m0 @atom:type1 74.12155961661898 7.212489168102785 82.44561844027857
    $atom:type1_53 $mol:m0 @atom:type1 71.62308007898014 2.884995667241112 82.44561844027858
    $atom:type1_54 $mol:m0 @atom:type1 44.97263167749915 0.0 77.73444024369122
    $atom:type1_55 $mol:m0 @atom:type1 47.471111215138 1.4424978336205534 77.73444024369122
    $atom:type1_56 $mol:m0 @atom:type1 52.46807029041568 1.442497833620557 77.73444024369122
    $atom:type1_57 $mol:m0 @atom:type1 49.969590752776845 2.8849956672411103 77.73444024369122
    $atom:type1_58 $mol:m0 @atom:type1 52.46807029041568 4.327493500861669 77.73444024369122
    $atom:type1_59 $mol:m0 @atom:type1 49.96959075277685 0.0 77.73444024369122
    $atom:type1_60 $mol:m0 @atom:type1 48.303937727684286 0.0 80.0900293419849
    $atom:type1_61 $mol:m0 @atom:type1 50.80241726532312 1.4424978336205534 80.09002934198489
    $atom:type1_62 $mol:m0 @atom:type1 57.46502936569336 4.327493500861673 77.73444024369121
    $atom:type1_63 $mol:m0 @atom:type1 54.966549828054525 5.769991334482226 77.73444024369122
    $atom:type1_64 $mol:m0 @atom:type1 57.46502936569337 7.212489168102781 77.73444024369122
    $atom:type1_65 $mol:m0 @atom:type1 54.96654982805453 2.8849956672411157 77.73444024369122
    $atom:type1_66 $mol:m0 @atom:type1 55.79937634060081 1.442497833620557 80.09002934198489
    $atom:type1_67 $mol:m0 @atom:type1 53.30089680296197 2.8849956672411103 80.0900293419849
    $atom:type1_68 $mol:m0 @atom:type1 55.7993763406008 4.327493500861669 80.09002934198489
    $atom:type1_69 $mol:m0 @atom:type1 53.30089680296197 0.0 80.09002934198489
    $atom:type1_70 $mol:m0 @atom:type1 51.635243777869405 0.0 82.44561844027857
    $atom:type1_71 $mol:m0 @atom:type1 54.133723315508234 1.4424978336205534 82.44561844027857
    $atom:type1_72 $mol:m0 @atom:type1 62.46198844097105 7.212489168102785 77.73444024369122
    $atom:type1_73 $mol:m0 @atom:type1 59.96350890333221 8.654987001723338 77.73444024369122
    $atom:type1_74 $mol:m0 @atom:type1 62.46198844097104 10.097484835343895 77.73444024369122
    $atom:type1_75 $mol:m0 @atom:type1 59.96350890333222 5.769991334482228 77.73444024369122
    $atom:type1_76 $mol:m0 @atom:type1 60.79633541587848 4.327493500861673 80.09002934198489
    $atom:type1_77 $mol:m0 @atom:type1 58.297855878239645 5.769991334482226 80.0900293419849
    $atom:type1_78 $mol:m0 @atom:type1 60.79633541587849 7.212489168102781 80.09002934198489
    $atom:type1_79 $mol:m0 @atom:type1 58.29785587823965 2.8849956672411157 80.0900293419849
    $atom:type1_80 $mol:m0 @atom:type1 59.13068239078593 1.442497833620557 82.44561844027857
    $atom:type1_81 $mol:m0 @atom:type1 56.63220285314709 2.8849956672411103 82.44561844027858
    $atom:type1_82 $mol:m0 @atom:type1 59.13068239078592 4.327493500861669 82.44561844027857
    $atom:type1_83 $mol:m0 @atom:type1 56.632202853147085 0.0 82.44561844027857
    $atom:type1_84 $mol:m0 @atom:type1 67.45894751624874 10.097484835343899 77.73444024369122
    $atom:type1_85 $mol:m0 @atom:type1 64.96046797860988 11.539982668964452 77.73444024369122
    $atom:type1_86 $mol:m0 @atom:type1 67.45894751624874 12.982480502585009 77.73444024369122
    $atom:type1_87 $mol:m0 @atom:type1 64.96046797860988 8.654987001723342 77.73444024369122
    $atom:type1_88 $mol:m0 @atom:type1 65.79329449115617 7.212489168102785 80.0900293419849
    $atom:type1_89 $mol:m0 @atom:type1 63.29481495351733 8.654987001723338 80.0900293419849
    $atom:type1_90 $mol:m0 @atom:type1 65.79329449115617 10.097484835343895 80.0900293419849
    $atom:type1_91 $mol:m0 @atom:type1 63.29481495351734 5.769991334482228 80.09002934198489
    $atom:type1_92 $mol:m0 @atom:type1 64.12764146606361 4.327493500861673 82.44561844027857
    $atom:type1_93 $mol:m0 @atom:type1 61.629161928424764 5.769991334482226 82.44561844027857
    $atom:type1_94 $mol:m0 @atom:type1 64.12764146606362 7.212489168102781 82.44561844027857
    $atom:type1_95 $mol:m0 @atom:type1 61.62916192842477 2.8849956672411157 82.44561844027857
    $atom:type1_96 $mol:m0 @atom:type1 72.45590659152641 12.982480502585013 77.73444024369122
    $atom:type1_97 $mol:m0 @atom:type1 69.95742705388757 14.424978336205566 77.73444024369122
    $atom:type1_98 $mol:m0 @atom:type1 72.45590659152641 15.867476169826123 77.73444024369122
    $atom:type1_99 $mol:m0 @atom:type1 69.95742705388757 11.539982668964456 77.73444024369122
    $atom:type1_100 $mol:m0 @atom:type1 70.79025356643385 10.097484835343899 80.09002934198489
    $atom:type1_101 $mol:m0 @atom:type1 68.29177402879502 11.539982668964452 80.09002934198489
    $atom:type1_102 $mol:m0 @atom:type1 70.79025356643386 12.982480502585009 80.09002934198489
    $atom:type1_103 $mol:m0 @atom:type1 68.291774028795 8.654987001723342 80.09002934198489
    $atom:type1_104 $mol:m0 @atom:type1 69.1246005413413 7.212489168102785 82.44561844027857
    $atom:type1_105 $mol:m0 @atom:type1 66.62612100370245 8.654987001723338 82.44561844027857
    $atom:type1_106 $mol:m0 @atom:type1 69.1246005413413 10.097484835343895 82.44561844027857
    $atom:type1_107 $mol:m0 @atom:type1 66.62612100370245 5.769991334482228 82.44561844027857
    $atom:type1_108 $mol:m0 @atom:type1 74.95438612916526 17.30997400344668 77.73444024369122
    $atom:type1_109 $mol:m0 @atom:type1 74.95438612916524 14.42497833620557 77.73444024369122
    $atom:type1_110 $mol:m0 @atom:type1 73.28873310407269 14.424978336205566 80.0900293419849
    $atom:type1_111 $mol:m0 @atom:type1 73.28873310407269 11.539982668964456 80.09002934198489
    $atom:type1_112 $mol:m0 @atom:type1 74.12155961661898 10.097484835343899 82.44561844027857
    $atom:type1_113 $mol:m0 @atom:type1 71.62308007898012 11.539982668964452 82.44561844027857
    $atom:type1_114 $mol:m0 @atom:type1 74.12155961661898 12.982480502585009 82.44561844027857
    $atom:type1_115 $mol:m0 @atom:type1 71.62308007898012 8.654987001723342 82.44561844027857
    $atom:type1_116 $mol:m0 @atom:type1 34.978713526943785 0.0 77.73444024369122
    $atom:type1_117 $mol:m0 @atom:type1 37.47719306458263 1.442497833620557 77.73444024369122
    $atom:type1_118 $mol:m0 @atom:type1 42.47415213986032 1.4424978336205605 77.73444024369122
    $atom:type1_119 $mol:m0 @atom:type1 39.975672602221465 2.8849956672411174 77.73444024369122
    $atom:type1_120 $mol:m0 @atom:type1 42.47415213986032 4.327493500861671 77.73444024369122
    $atom:type1_121 $mol:m0 @atom:type1 39.975672602221465 0.0 77.73444024369122
    $atom:type1_122 $mol:m0 @atom:type1 38.310019577128905 0.0 80.09002934198489
    $atom:type1_123 $mol:m0 @atom:type1 40.80849911476776 1.442497833620557 80.0900293419849
    $atom:type1_124 $mol:m0 @atom:type1 47.471111215137995 4.327493500861671 77.73444024369122
    $atom:type1_125 $mol:m0 @atom:type1 44.97263167749915 5.769991334482228 77.73444024369122
    $atom:type1_126 $mol:m0 @atom:type1 47.471111215138 7.2124891681027865 77.73444024369122
    $atom:type1_127 $mol:m0 @atom:type1 44.97263167749915 2.884995667241114 77.73444024369122
    $atom:type1_128 $mol:m0 @atom:type1 45.80545819004544 1.4424978336205605 80.0900293419849
    $atom:type1_129 $mol:m0 @atom:type1 43.30697865240659 2.8849956672411174 80.0900293419849
    $atom:type1_130 $mol:m0 @atom:type1 45.80545819004544 4.327493500861671 80.0900293419849
    $atom:type1_131 $mol:m0 @atom:type1 43.3069786524066 0.0 80.0900293419849
    $atom:type1_132 $mol:m0 @atom:type1 41.64132562731403 0.0 82.44561844027858
    $atom:type1_133 $mol:m0 @atom:type1 44.13980516495288 1.442497833620557 82.44561844027858
    $atom:type1_134 $mol:m0 @atom:type1 52.46807029041568 7.2124891681027865 77.73444024369122
    $atom:type1_135 $mol:m0 @atom:type1 49.96959075277685 8.654987001723343 77.73444024369122
    $atom:type1_136 $mol:m0 @atom:type1 52.46807029041569 10.097484835343899 77.73444024369122
    $atom:type1_137 $mol:m0 @atom:type1 49.96959075277685 5.76999133448223 77.73444024369122
    $atom:type1_138 $mol:m0 @atom:type1 50.802417265323115 4.327493500861671 80.0900293419849
    $atom:type1_139 $mol:m0 @atom:type1 48.303937727684286 5.769991334482228 80.0900293419849
    $atom:type1_140 $mol:m0 @atom:type1 50.80241726532312 7.2124891681027865 80.09002934198489
    $atom:type1_141 $mol:m0 @atom:type1 48.303937727684286 2.884995667241114 80.0900293419849
    $atom:type1_142 $mol:m0 @atom:type1 49.13676424023056 1.4424978336205605 82.44561844027857
    $atom:type1_143 $mol:m0 @atom:type1 46.638284702591726 2.8849956672411174 82.44561844027858
    $atom:type1_144 $mol:m0 @atom:type1 49.13676424023056 4.327493500861671 82.44561844027857
    $atom:type1_145 $mol:m0 @atom:type1 46.63828470259173 0.0 82.44561844027858
    $atom:type1_146 $mol:m0 @atom:type1 57.46502936569337 10.097484835343899 77.73444024369122
    $atom:type1_147 $mol:m0 @atom:type1 54.96654982805453 11.539982668964456 77.73444024369122
    $atom:type1_148 $mol:m0 @atom:type1 57.46502936569336 12.982480502585013 77.73444024369121
    $atom:type1_149 $mol:m0 @atom:type1 54.96654982805454 8.654987001723342 77.73444024369122
    $atom:type1_150 $mol:m0 @atom:type1 55.7993763406008 7.2124891681027865 80.09002934198489
    $atom:type1_151 $mol:m0 @atom:type1 53.300896802961965 8.654987001723343 80.0900293419849
    $atom:type1_152 $mol:m0 @atom:type1 55.79937634060081 10.097484835343899 80.09002934198489
    $atom:type1_153 $mol:m0 @atom:type1 53.30089680296197 5.76999133448223 80.0900293419849
    $atom:type1_154 $mol:m0 @atom:type1 54.13372331550825 4.327493500861671 82.44561844027857
    $atom:type1_155 $mol:m0 @atom:type1 51.63524377786941 5.769991334482228 82.44561844027858
    $atom:type1_156 $mol:m0 @atom:type1 54.13372331550824 7.2124891681027865 82.44561844027857
    $atom:type1_157 $mol:m0 @atom:type1 51.635243777869405 2.884995667241114 82.44561844027857
    $atom:type1_158 $mol:m0 @atom:type1 62.461988440971055 12.982480502585013 77.73444024369122
    $atom:type1_159 $mol:m0 @atom:type1 59.96350890333222 14.42497833620557 77.73444024369124
    $atom:type1_160 $mol:m0 @atom:type1 62.46198844097105 15.867476169826126 77.73444024369122
    $atom:type1_161 $mol:m0 @atom:type1 59.96350890333221 11.539982668964456 77.73444024369122
    $atom:type1_162 $mol:m0 @atom:type1 60.79633541587849 10.097484835343899 80.0900293419849
    $atom:type1_163 $mol:m0 @atom:type1 58.29785587823965 11.539982668964456 80.0900293419849
    $atom:type1_164 $mol:m0 @atom:type1 60.79633541587848 12.982480502585013 80.09002934198489
    $atom:type1_165 $mol:m0 @atom:type1 58.29785587823966 8.654987001723342 80.0900293419849
    $atom:type1_166 $mol:m0 @atom:type1 59.13068239078592 7.2124891681027865 82.44561844027857
    $atom:type1_167 $mol:m0 @atom:type1 56.632202853147085 8.654987001723343 82.44561844027858
    $atom:type1_168 $mol:m0 @atom:type1 59.13068239078593 10.097484835343899 82.44561844027857
    $atom:type1_169 $mol:m0 @atom:type1 56.63220285314709 5.76999133448223 82.44561844027858
    $atom:type1_170 $mol:m0 @atom:type1 67.45894751624874 15.867476169826126 77.73444024369122
    $atom:type1_171 $mol:m0 @atom:type1 64.96046797860988 17.309974003446683 77.73444024369122
    $atom:type1_172 $mol:m0 @atom:type1 67.45894751624873 18.75247183706724 77.73444024369122
    $atom:type1_173 $mol:m0 @atom:type1 64.9604679786099 14.42497833620557 77.73444024369122
    $atom:type1_174 $mol:m0 @atom:type1 65.79329449115619 12.982480502585013 80.0900293419849
    $atom:type1_175 $mol:m0 @atom:type1 63.294814953517324 14.42497833620557 80.0900293419849
    $atom:type1_176 $mol:m0 @atom:type1 65.79329449115617 15.867476169826126 80.0900293419849
    $atom:type1_177 $mol:m0 @atom:type1 63.29481495351733 11.539982668964456 80.0900293419849
    $atom:type1_178 $mol:m0 @atom:type1 64.12764146606362 10.097484835343899 82.44561844027858
    $atom:type1_179 $mol:m0 @atom:type1 61.62916192842477 11.539982668964456 82.44561844027858
    $atom:type1_180 $mol:m0 @atom:type1 64.12764146606361 12.982480502585013 82.44561844027858
    $atom:type1_181 $mol:m0 @atom:type1 61.62916192842478 8.654987001723342 82.44561844027857
    $atom:type1_182 $mol:m0 @atom:type1 72.45590659152643 18.75247183706724 77.73444024369122
    $atom:type1_183 $mol:m0 @atom:type1 69.95742705388757 20.194969670687797 77.73444024369122
    $atom:type1_184 $mol:m0 @atom:type1 72.45590659152641 21.637467504308354 77.73444024369122
    $atom:type1_185 $mol:m0 @atom:type1 69.95742705388757 17.309974003446683 77.73444024369122
    $atom:type1_186 $mol:m0 @atom:type1 70.79025356643386 15.867476169826126 80.0900293419849
    $atom:type1_187 $mol:m0 @atom:type1 68.291774028795 17.309974003446683 80.09002934198489
    $atom:type1_188 $mol:m0 @atom:type1 70.79025356643385 18.75247183706724 80.09002934198489
    $atom:type1_189 $mol:m0 @atom:type1 68.29177402879502 14.42497833620557 80.0900293419849
    $atom:type1_190 $mol:m0 @atom:type1 69.1246005413413 12.982480502585013 82.44561844027857
    $atom:type1_191 $mol:m0 @atom:type1 66.62612100370245 14.42497833620557 82.44561844027857
    $atom:type1_192 $mol:m0 @atom:type1 69.1246005413413 15.867476169826126 82.44561844027857
    $atom:type1_193 $mol:m0 @atom:type1 66.62612100370245 11.539982668964456 82.44561844027857
    $atom:type1_194 $mol:m0 @atom:type1 74.95438612916524 23.07996533792891 77.73444024369122
    $atom:type1_195 $mol:m0 @atom:type1 74.95438612916526 20.194969670687797 77.73444024369122
    $atom:type1_196 $mol:m0 @atom:type1 73.28873310407269 20.194969670687797 80.0900293419849
    $atom:type1_197 $mol:m0 @atom:type1 73.28873310407269 17.309974003446683 80.0900293419849
    $atom:type1_198 $mol:m0 @atom:type1 74.12155961661898 15.867476169826126 82.44561844027858
    $atom:type1_199 $mol:m0 @atom:type1 71.62308007898012 17.309974003446683 82.44561844027858
    $atom:type1_200 $mol:m0 @atom:type1 74.12155961661897 18.75247183706724 82.44561844027858
    $atom:type1_201 $mol:m0 @atom:type1 71.62308007898014 14.42497833620557 82.44561844027857
    $atom:type1_202 $mol:m0 @atom:type1 24.984795376388426 0.0 77.73444024369122
    $atom:type1_203 $mol:m0 @atom:type1 27.48327491402727 1.4424978336205534 77.73444024369124
    $atom:type1_204 $mol:m0 @atom:type1 32.48023398930495 1.442497833620557 77.73444024369122
    $atom:type1_205 $mol:m0 @atom:type1 29.981754451666106 2.8849956672411103 77.73444024369122
    $atom:type1_206 $mol:m0 @atom:type1 32.48023398930495 4.327493500861667 77.73444024369124
    $atom:type1_207 $mol:m0 @atom:type1 29.9817544516661 0.0 77.73444024369122
    $atom:type1_208 $mol:m0 @atom:type1 28.316101426573546 0.0 80.0900293419849
    $atom:type1_209 $mol:m0 @atom:type1 30.81458096421239 1.4424978336205534 80.0900293419849
    $atom:type1_210 $mol:m0 @atom:type1 37.47719306458263 4.327493500861674 77.73444024369122
    $atom:type1_211 $mol:m0 @atom:type1 34.978713526943785 5.769991334482228 77.73444024369122
    $atom:type1_212 $mol:m0 @atom:type1 37.477193064582636 7.212489168102781 77.73444024369122
    $atom:type1_213 $mol:m0 @atom:type1 34.97871352694378 2.884995667241114 77.73444024369122
    $atom:type1_214 $mol:m0 @atom:type1 35.81154003949007 1.442497833620557 80.0900293419849
    $atom:type1_215 $mol:m0 @atom:type1 33.313060501851226 2.8849956672411103 80.0900293419849
    $atom:type1_216 $mol:m0 @atom:type1 35.81154003949007 4.327493500861667 80.0900293419849
    $atom:type1_217 $mol:m0 @atom:type1 33.31306050185122 0.0 80.0900293419849
    $atom:type1_218 $mol:m0 @atom:type1 31.647407476758666 0.0 82.44561844027858
    $atom:type1_219 $mol:m0 @atom:type1 34.14588701439751 1.4424978336205534 82.44561844027858
    $atom:type1_220 $mol:m0 @atom:type1 42.474152139860315 7.212489168102785 77.73444024369122
    $atom:type1_221 $mol:m0 @atom:type1 39.975672602221465 8.654987001723338 77.73444024369122
    $atom:type1_222 $mol:m0 @atom:type1 42.47415213986032 10.097484835343897 77.73444024369122
    $atom:type1_223 $mol:m0 @atom:type1 39.975672602221465 5.769991334482228 77.73444024369122
    $atom:type1_224 $mol:m0 @atom:type1 40.808499114767756 4.327493500861674 80.0900293419849
    $atom:type1_225 $mol:m0 @atom:type1 38.310019577128905 5.769991334482228 80.0900293419849
    $atom:type1_226 $mol:m0 @atom:type1 40.80849911476776 7.212489168102781 80.0900293419849
    $atom:type1_227 $mol:m0 @atom:type1 38.3100195771289 2.884995667241114 80.0900293419849
    $atom:type1_228 $mol:m0 @atom:type1 39.142846089675196 1.442497833620557 82.44561844027857
    $atom:type1_229 $mol:m0 @atom:type1 36.644366552036345 2.8849956672411103 82.44561844027857
    $atom:type1_230 $mol:m0 @atom:type1 39.1428460896752 4.327493500861667 82.44561844027858
    $atom:type1_231 $mol:m0 @atom:type1 36.64436655203634 0.0 82.44561844027857
    $atom:type1_232 $mol:m0 @atom:type1 47.471111215138 10.0974848353439 77.73444024369122
    $atom:type1_233 $mol:m0 @atom:type1 44.97263167749916 11.539982668964454 77.73444024369122
    $atom:type1_234 $mol:m0 @atom:type1 47.471111215138 12.982480502585009 77.73444024369122
    $atom:type1_235 $mol:m0 @atom:type1 44.97263167749915 8.654987001723343 77.73444024369122
    $atom:type1_236 $mol:m0 @atom:type1 45.805458190045435 7.212489168102785 80.0900293419849
    $atom:type1_237 $mol:m0 @atom:type1 43.30697865240659 8.654987001723338 80.0900293419849
    $atom:type1_238 $mol:m0 @atom:type1 45.80545819004544 10.097484835343897 80.0900293419849
    $atom:type1_239 $mol:m0 @atom:type1 43.30697865240659 5.769991334482228 80.0900293419849
    $atom:type1_240 $mol:m0 @atom:type1 44.139805164952875 4.327493500861674 82.44561844027858
    $atom:type1_241 $mol:m0 @atom:type1 41.64132562731403 5.769991334482228 82.44561844027858
    $atom:type1_242 $mol:m0 @atom:type1 44.13980516495288 7.212489168102781 82.44561844027858
    $atom:type1_243 $mol:m0 @atom:type1 41.64132562731403 2.884995667241114 82.44561844027858
    $atom:type1_244 $mol:m0 @atom:type1 52.46807029041568 12.982480502585013 77.73444024369122
    $atom:type1_245 $mol:m0 @atom:type1 49.96959075277685 14.424978336205566 77.73444024369122
    $atom:type1_246 $mol:m0 @atom:type1 52.46807029041568 15.867476169826123 77.73444024369122
    $atom:type1_247 $mol:m0 @atom:type1 49.969590752776845 11.539982668964456 77.73444024369122
    $atom:type1_248 $mol:m0 @atom:type1 50.802417265323115 10.0974848353439 80.0900293419849
    $atom:type1_249 $mol:m0 @atom:type1 48.30393772768429 11.539982668964454 80.0900293419849
    $atom:type1_250 $mol:m0 @atom:type1 50.80241726532313 12.982480502585009 80.0900293419849
    $atom:type1_251 $mol:m0 @atom:type1 48.303937727684286 8.654987001723343 80.0900293419849
    $atom:type1_252 $mol:m0 @atom:type1 49.136764240230555 7.212489168102785 82.44561844027857
    $atom:type1_253 $mol:m0 @atom:type1 46.638284702591726 8.654987001723338 82.44561844027858
    $atom:type1_254 $mol:m0 @atom:type1 49.13676424023056 10.097484835343897 82.44561844027857
    $atom:type1_255 $mol:m0 @atom:type1 46.638284702591726 5.769991334482228 82.44561844027858
    $atom:type1_256 $mol:m0 @atom:type1 57.465029365693354 15.867476169826126 77.73444024369122
    $atom:type1_257 $mol:m0 @atom:type1 54.966549828054525 17.30997400344668 77.73444024369122
    $atom:type1_258 $mol:m0 @atom:type1 57.46502936569337 18.752471837067237 77.73444024369122
    $atom:type1_259 $mol:m0 @atom:type1 54.966549828054525 14.42497833620557 77.73444024369122
    $atom:type1_260 $mol:m0 @atom:type1 55.7993763406008 12.982480502585013 80.09002934198489
    $atom:type1_261 $mol:m0 @atom:type1 53.30089680296197 14.424978336205566 80.0900293419849
    $atom:type1_262 $mol:m0 @atom:type1 55.7993763406008 15.867476169826123 80.09002934198489
    $atom:type1_263 $mol:m0 @atom:type1 53.30089680296197 11.539982668964456 80.0900293419849
    $atom:type1_264 $mol:m0 @atom:type1 54.133723315508234 10.0974848353439 82.44561844027857
    $atom:type1_265 $mol:m0 @atom:type1 51.635243777869405 11.539982668964454 82.44561844027858
    $atom:type1_266 $mol:m0 @atom:type1 54.13372331550825 12.982480502585009 82.44561844027857
    $atom:type1_267 $mol:m0 @atom:type1 51.635243777869405 8.654987001723343 82.44561844027857
    $atom:type1_268 $mol:m0 @atom:type1 62.46198844097104 18.75247183706724 77.73444024369122
    $atom:type1_269 $mol:m0 @atom:type1 59.96350890333221 20.194969670687794 77.73444024369122
    $atom:type1_270 $mol:m0 @atom:type1 62.46198844097104 21.63746750430835 77.73444024369122
    $atom:type1_271 $mol:m0 @atom:type1 59.96350890333221 17.309974003446683 77.73444024369122
    $atom:type1_272 $mol:m0 @atom:type1 60.79633541587849 15.867476169826126 80.0900293419849
    $atom:type1_273 $mol:m0 @atom:type1 58.29785587823966 17.30997400344668 80.0900293419849
    $atom:type1_274 $mol:m0 @atom:type1 60.79633541587849 18.752471837067237 80.0900293419849
    $atom:type1_275 $mol:m0 @atom:type1 58.297855878239645 14.42497833620557 80.0900293419849
    $atom:type1_276 $mol:m0 @atom:type1 59.13068239078592 12.982480502585013 82.44561844027857
    $atom:type1_277 $mol:m0 @atom:type1 56.63220285314709 14.424978336205566 82.44561844027858
    $atom:type1_278 $mol:m0 @atom:type1 59.13068239078592 15.867476169826123 82.44561844027857
    $atom:type1_279 $mol:m0 @atom:type1 56.63220285314709 11.539982668964456 82.44561844027858
    $atom:type1_280 $mol:m0 @atom:type1 67.45894751624874 21.637467504308354 77.73444024369122
    $atom:type1_281 $mol:m0 @atom:type1 64.9604679786099 23.079965337928908 77.73444024369122
    $atom:type1_282 $mol:m0 @atom:type1 67.45894751624874 24.522463171549465 77.73444024369122
    $atom:type1_283 $mol:m0 @atom:type1 64.96046797860988 20.194969670687797 77.73444024369122
    $atom:type1_284 $mol:m0 @atom:type1 65.79329449115617 18.75247183706724 80.0900293419849
    $atom:type1_285 $mol:m0 @atom:type1 63.29481495351733 20.194969670687794 80.0900293419849
    $atom:type1_286 $mol:m0 @atom:type1 65.79329449115617 21.63746750430835 80.0900293419849
    $atom:type1_287 $mol:m0 @atom:type1 63.29481495351733 17.309974003446683 80.0900293419849
    $atom:type1_288 $mol:m0 @atom:type1 64.12764146606362 15.867476169826126 82.44561844027858
    $atom:type1_289 $mol:m0 @atom:type1 61.629161928424764 17.30997400344668 82.44561844027858
    $atom:type1_290 $mol:m0 @atom:type1 64.12764146606362 18.752471837067237 82.44561844027858
    $atom:type1_291 $mol:m0 @atom:type1 61.629161928424764 14.42497833620557 82.44561844027857
    $atom:type1_292 $mol:m0 @atom:type1 72.45590659152641 24.522463171549468 77.73444024369122
    $atom:type1_293 $mol:m0 @atom:type1 69.95742705388757 25.96496100517002 77.73444024369122
    $atom:type1_294 $mol:m0 @atom:type1 72.45590659152643 27.40745883879058 77.73444024369122
    $atom:type1_295 $mol:m0 @atom:type1 69.95742705388757 23.07996533792891 77.73444024369122
    $atom:type1_296 $mol:m0 @atom:type1 70.79025356643386 21.637467504308354 80.0900293419849
    $atom:type1_297 $mol:m0 @atom:type1 68.29177402879502 23.079965337928908 80.0900293419849
    $atom:type1_298 $mol:m0 @atom:type1 70.79025356643386 24.522463171549465 80.0900293419849
    $atom:type1_299 $mol:m0 @atom:type1 68.291774028795 20.194969670687797 80.09002934198489
    $atom:type1_300 $mol:m0 @atom:type1 69.1246005413413 18.75247183706724 82.44561844027857
    $atom:type1_301 $mol:m0 @atom:type1 66.62612100370245 20.194969670687794 82.44561844027857
    $atom:type1_302 $mol:m0 @atom:type1 69.1246005413413 21.63746750430835 82.44561844027857
    $atom:type1_303 $mol:m0 @atom:type1 66.62612100370245 17.309974003446683 82.44561844027857
    $atom:type1_304 $mol:m0 @atom:type1 74.95438612916526 25.964961005170025 77.73444024369122
    $atom:type1_305 $mol:m0 @atom:type1 73.28873310407269 25.96496100517002 80.0900293419849
    $atom:type1_306 $mol:m0 @atom:type1 73.28873310407269 23.07996533792891 80.0900293419849
    $atom:type1_307 $mol:m0 @atom:type1 74.12155961661898 21.637467504308354 82.44561844027858
    $atom:type1_308 $mol:m0 @atom:type1 71.62308007898014 23.079965337928908 82.44561844027858
    $atom:type1_309 $mol:m0 @atom:type1 74.12155961661898 24.522463171549465 82.44561844027858
    $atom:type1_310 $mol:m0 @atom:type1 71.62308007898012 20.194969670687797 82.44561844027857
    $atom:type1_311 $mol:m0 @atom:type1 14.990877225833058 0.0 77.73444024369122
    $atom:type1_312 $mol:m0 @atom:type1 17.489356763471896 1.442497833620557 77.73444024369122
    $atom:type1_313 $mol:m0 @atom:type1 22.486315838749583 1.442497833620557 77.73444024369124
    $atom:type1_314 $mol:m0 @atom:type1 19.987836301110747 2.884995667241114 77.73444024369122
    $atom:type1_315 $mol:m0 @atom:type1 22.486315838749583 4.327493500861667 77.73444024369122
    $atom:type1_316 $mol:m0 @atom:type1 19.98783630111074 0.0 77.73444024369122
    $atom:type1_317 $mol:m0 @atom:type1 18.322183276018187 0.0 80.09002934198489
    $atom:type1_318 $mol:m0 @atom:type1 20.820662813657023 1.442497833620557 80.0900293419849
    $atom:type1_319 $mol:m0 @atom:type1 27.48327491402727 4.327493500861667 77.73444024369124
    $atom:type1_320 $mol:m0 @atom:type1 24.984795376388426 5.769991334482224 77.73444024369122